data;

set A := 863305300 517342734 701381646 474390065 946224113 521426427 203686747 761703525 509452311 722580580 55416418 560400131 906751387 950019356 180433798 357372594 667971644 951285742 923043507 818517428 697191910 977525730 954136737 433527589 906374635 129546871 751290895 114091065 387994697 405698280 367614730 444334975 854744808 862932842 506225701 229075490 875597019 719497321 492695489 575514404 138130844 133192656 658636100 802329762 726090833 551032383 428936291 920974613 199863563 237698132 849085018 630116493 39337987 733501413 756252463 71552501;
param T := 14000000000;

end;
